Maximize
  - 39 x0 + 0 x1 + 0 x2 + 0 x3 + 0 x4 + 0 x5 + 0 x6 + 0 x7 + 0 x8 + 0 x9
   + 0 x10 + 0 x11 + 0 x12 - 34 x13 - 18 x14 + 20 x15 + 0 x16 + 0 x17
   + 0 x18 - 42 x19 + 0 x20 + 0 x21 + 0 x22 + 0 x23 + 27 x24 + 0 x25
   + 26 x26 + 0 x27 + 0 x28 + 0 x29 - 49 x30 - 35 x31 + 32 x32 + 0 x33
   + 0 x34 + 0 x35 + 0 x36 + 0 x37 - 23 x38 + 0 x39 + 3 x40 + 0 x41 + 0 x42
   - 6 x43 + 0 x44 + 0 x45 + 0 x46 + 0 x47 - 5 x48 + 0 x49 + [ 33 x0 ^2
   + 34 x0 * x7 - 88 x0 * x11 + 46 x0 * x15 + 78 x0 * x16 - 32 x0 * x17
   + 42 x0 * x21 + 80 x0 * x24 + 66 x0 * x28 - 36 x0 * x32 - 62 x0 * x40
   - 18 x0 * x42 - 58 x0 * x48 + 88 x0 * x49 - 44 x1 * x3 - 72 x1 * x10
   + 26 x1 * x14 - 64 x1 * x16 - 82 x1 * x17 - 94 x1 * x19 + 64 x1 * x23
   - 42 x1 * x25 + 20 x1 * x28 - 48 x1 * x31 - 84 x1 * x39 + 2 x1 * x41
   - 30 x1 * x42 + 42 x2 * x6 + 42 x2 * x10 + 82 x2 * x17 - 22 x2 * x18
   - 92 x2 * x19 - 48 x2 * x20 + 62 x2 * x24 - 34 x2 * x28 + 14 x2 * x29
   - 20 x2 * x35 + 44 x2 * x36 - 6 x2 * x37 - 6 x2 * x38 - 24 x2 * x45
   - 70 x2 * x47 + 70 x2 * x48 + 80 x3 * x7 - 98 x3 * x8 - 8 x3 * x9
   + 94 x3 * x13 + 78 x3 * x18 - 34 x3 * x19 - 58 x3 * x20 - 64 x3 * x21
   - 20 x3 * x22 - 96 x3 * x25 + 30 x3 * x32 + 2 x3 * x35 - 70 x3 * x40
   + 86 x3 * x44 - 96 x4 * x5 - 16 x4 * x6 - 4 x4 * x8 + 30 x4 * x11
   + 54 x4 * x13 - 96 x4 * x14 - 56 x4 * x18 + 46 x4 * x21 + 84 x4 * x28
   + 82 x4 * x29 - 84 x4 * x31 + 80 x4 * x36 + 94 x4 * x37 + 6 x4 * x42
   + 28 x4 * x43 - 8 x4 * x48 + 41 x5 ^2 + 78 x5 * x6 - 94 x5 * x10
   + 14 x5 * x15 + 20 x5 * x17 - 32 x5 * x19 - 72 x5 * x23 + 82 x5 * x27
   - 92 x5 * x34 - 34 x5 * x37 + 76 x5 * x39 + 10 x5 * x43 - 18 x5 * x46
   - 10 x5 * x47 + 76 x6 * x8 + 28 x6 * x15 + 60 x6 * x17 + 92 x6 * x26
   + 50 x6 * x28 - 96 x6 * x29 + 62 x6 * x37 + 64 x6 * x38 + 34 x6 * x39
   + 16 x6 * x45 + 76 x6 * x46 + 50 x7 * x11 + 14 x7 * x16 + 80 x7 * x22
   - 56 x7 * x24 + 18 x7 * x27 + 38 x7 * x28 - 72 x7 * x38 - 10 x7 * x41
   - 6 x7 * x42 + 54 x7 * x43 - 90 x7 * x44 + 35 x8 ^2 + 40 x8 * x11
   + 42 x8 * x13 + 60 x8 * x20 + 36 x8 * x25 + 94 x8 * x38 + 98 x8 * x39
   + 80 x8 * x41 - 48 x8 * x42 - 14 x8 * x43 + 50 x8 * x46 - 70 x9 * x10
   - 40 x9 * x11 + 30 x9 * x17 - 68 x9 * x20 + 2 x9 * x22 + 76 x9 * x23
   + 62 x9 * x26 + 96 x9 * x28 + 14 x9 * x29 - 26 x9 * x30 - 18 x9 * x32
   - 70 x9 * x34 + 52 x9 * x38 + 32 x9 * x39 + 72 x9 * x42 - 42 x9 * x44
   + 18 x9 * x46 + 11 x10 ^2 + 4 x10 * x11 - 4 x10 * x18 - 14 x10 * x25
   + 60 x10 * x32 + 80 x10 * x40 + 80 x10 * x47 - 84 x10 * x48
   + 20 x11 * x14 - 8 x11 * x16 - 98 x11 * x19 - 94 x11 * x22
   + 58 x11 * x25 - 50 x11 * x27 + 74 x11 * x30 + 34 x11 * x36
   - 26 x11 * x37 + 48 x11 * x38 + 10 x11 * x39 + 74 x11 * x45
   - 94 x12 * x19 - 26 x12 * x22 + 86 x12 * x23 - 2 x12 * x24
   - 22 x12 * x25 - 74 x12 * x30 + 88 x12 * x31 - 6 x12 * x33
   - 50 x12 * x36 + 48 x12 * x41 - 38 x12 * x43 - 52 x12 * x44
   + 36 x13 * x21 - 30 x13 * x24 + 48 x13 * x29 - 8 x13 * x31
   - 68 x13 * x32 + 34 x13 * x45 + 10 x13 * x49 + 28 x14 ^2 - 70 x14 * x15
   + 26 x14 * x17 - 88 x14 * x20 - 84 x14 * x23 + 72 x14 * x25
   - 66 x14 * x30 - 18 x14 * x33 + 20 x14 * x36 + 80 x14 * x37
   - 60 x14 * x38 + 62 x14 * x42 - 36 x14 * x43 - 18 x14 * x45
   + 70 x14 * x46 + 58 x14 * x49 - 2 x15 * x16 + 8 x15 * x20 + 88 x15 * x33
   + 44 x15 * x34 + 38 x15 * x36 + 32 x15 * x38 + 96 x15 * x39
   - 22 x15 * x42 - 32 x15 * x44 + 11 x16 ^2 - 2 x16 * x17 - 26 x16 * x18
   - 92 x16 * x19 + 76 x16 * x20 + 4 x16 * x25 - 20 x16 * x31
   + 16 x16 * x47 + 42 x17 * x21 + 76 x17 * x22 - 48 x17 * x25
   + 84 x17 * x28 - 18 x17 * x31 - 26 x17 * x32 + 94 x17 * x34
   + 64 x17 * x40 + 74 x17 * x46 + 88 x17 * x47 - 12 x18 * x21
   - 66 x18 * x24 - 66 x18 * x28 + 82 x18 * x32 + 72 x18 * x33
   + 22 x18 * x34 + 52 x18 * x37 - 24 x18 * x38 + 54 x18 * x39
   - 16 x18 * x43 - 66 x18 * x45 - 24 x18 * x47 + 20 x19 * x20
   + 42 x19 * x25 + 76 x19 * x26 + 98 x19 * x30 - 98 x19 * x33
   - 76 x19 * x34 - 70 x19 * x38 + 94 x19 * x39 - 98 x19 * x47
   + 4 x19 * x48 + 84 x19 * x49 - 8 x20 ^2 + 26 x20 * x21 - 22 x20 * x22
   + 44 x20 * x25 + 6 x20 * x28 - 82 x20 * x31 - 96 x20 * x36
   + 76 x20 * x37 - 68 x20 * x39 - 28 x20 * x40 - 70 x20 * x41
   + 8 x20 * x48 - 46 x21 * x30 + 36 x21 * x37 - 50 x22 * x25
   + 26 x22 * x27 - 70 x22 * x46 + 78 x22 * x47 + 32 x23 * x27
   - 66 x23 * x28 + 82 x23 * x29 - 28 x23 * x30 - 84 x23 * x32
   + 68 x23 * x48 - 12 x24 ^2 - 70 x24 * x25 - 50 x24 * x28 - 66 x24 * x29
   - 18 x24 * x33 + 60 x24 * x34 - 88 x24 * x35 - 20 x24 * x37
   - 54 x24 * x42 - 98 x24 * x43 - 14 x25 * x26 - 62 x25 * x28
   + 62 x25 * x29 + 70 x25 * x31 + 12 x25 * x34 - 6 x25 * x35
   + 50 x25 * x36 - 28 x25 * x38 - 62 x25 * x40 + 92 x25 * x46
   - 68 x25 * x47 + 70 x25 * x49 - 16 x26 * x27 - 58 x26 * x28
   - 76 x26 * x31 + 96 x26 * x32 + 66 x26 * x40 - 46 x26 * x41
   - 82 x26 * x42 - 34 x26 * x46 + 12 x27 * x28 + 16 x27 * x31
   - 92 x27 * x33 + 68 x27 * x34 + 32 x27 * x36 + 16 x27 * x42
   + 18 x27 * x46 + 8 x27 * x47 - 76 x27 * x49 + 22 x28 * x30
   + 44 x28 * x31 - 34 x28 * x32 - 88 x28 * x40 + 16 x28 * x46
   - 96 x29 * x33 + 24 x29 * x34 - 60 x29 * x35 - 62 x29 * x39
   + 40 x29 * x40 + 2 x29 * x44 - 28 x29 * x45 - 10 x29 * x46
   - 14 x29 * x47 - 2 x30 * x37 - 16 x30 * x40 - 40 x30 * x41
   - 40 x30 * x43 - 26 x30 * x45 + x31 ^2 + 76 x31 * x32 + 16 x31 * x38
   - 16 x31 * x41 + 78 x31 * x46 - 98 x31 * x47 - 74 x32 * x36
   - 84 x32 * x38 - 6 x32 * x39 - 40 x32 * x40 - 66 x32 * x41
   - 40 x32 * x44 + 4 x32 * x45 - 54 x32 * x46 - 72 x32 * x47 - 14 x33 ^2
   - 2 x33 * x38 + 68 x33 * x39 - 38 x33 * x40 + 22 x33 * x43
   + 80 x33 * x46 - 2 x34 ^2 - 30 x34 * x49 - 46 x35 * x38 - 76 x35 * x45
   - 6 x35 * x47 + 88 x35 * x48 - 98 x35 * x49 + 16 x36 * x42
   - 80 x36 * x45 - 62 x37 * x46 - 94 x37 * x48 + 84 x37 * x49
   + 52 x38 * x40 + 78 x38 * x41 - 58 x38 * x44 + 20 x38 * x47 + 36 x39 ^2
   + 96 x39 * x40 - 12 x39 * x43 + 4 x39 * x46 + 64 x40 * x41
   - 26 x40 * x42 - 58 x40 * x43 + 90 x40 * x44 + 14 x40 * x45
   + 82 x40 * x47 - 26 x41 ^2 - 94 x41 * x49 - 13 x42 ^2 + 54 x42 * x45
   + 30 x42 * x48 - 2 x43 * x44 + 66 x43 * x45 + 86 x44 * x46 + 26 x45 ^2
   - 2 x45 * x48 + 28 x46 * x47 ] / 2 
Subject To
Bounds
 x0 <= 1
 x1 <= 1
 x2 <= 1
 x3 <= 1
 x4 <= 1
 x5 <= 1
 x6 <= 1
 x7 <= 1
 x8 <= 1
 x9 <= 1
 x10 <= 1
 x11 <= 1
 x12 <= 1
 x13 <= 1
 x14 <= 1
 x15 <= 1
 x16 <= 1
 x17 <= 1
 x18 <= 1
 x19 <= 1
 x20 <= 1
 x21 <= 1
 x22 <= 1
 x23 <= 1
 x24 <= 1
 x25 <= 1
 x26 <= 1
 x27 <= 1
 x28 <= 1
 x29 <= 1
 x30 <= 1
 x31 <= 1
 x32 <= 1
 x33 <= 1
 x34 <= 1
 x35 <= 1
 x36 <= 1
 x37 <= 1
 x38 <= 1
 x39 <= 1
 x40 <= 1
 x41 <= 1
 x42 <= 1
 x43 <= 1
 x44 <= 1
 x45 <= 1
 x46 <= 1
 x47 <= 1
 x48 <= 1
 x49 <= 1
End
